(set-info :smt-lib-version 2.6)
(set-logic QF_S)
(set-info :source |
Generated by: Murphy Berzish, Mitja Kulczynski, Federico Mora, Florin Manea, Joel Day, Dirk Nowotka, Vijay Ganesh, Zhengyang Lu
Generated on: 2020-10-01
Description: Translated from a collection of real-world regex queries, AutomataArk, collected by Loris D’Antoni and Fang Wang: https://github.com/lorisdanto/automatark
Application: Evaluate solvers on real-world regex queries
Target solver: Z3str3RE, CVC4, OSTRICH, Z3seq, Z3str3, Z3-Trau
Publications: Berzish, M., Kulczynski, M., Mora, F., Manea, F., Day, J. D., Nowotka, D., & Ganesh, V. (2021, July). An SMT solver for regular expressions and linear arithmetic over string length. In CAV 2021.
|)
(set-info :license "https://creativecommons.org/licenses/by/4.0/")
(set-info :category "industrial")
(set-info :status unsat)

(declare-const X String)
(assert (str.in_re X (re.union (re.++ (re.union (re.++ (re.union (re.range "1" "9") (re.++ (str.to_re "0") (re.range "1" "9")) (re.++ (re.range "1" "2") (re.range "0" "9")) (str.to_re "30")) (str.to_re "-") (re.union (re.++ (re.union (str.to_re "A") (str.to_re ",") (str.to_re "a")) (re.union (str.to_re "P") (str.to_re ",") (str.to_re "p")) (re.union (str.to_re "R") (str.to_re ",") (str.to_re "r"))) (re.++ (re.union (str.to_re "J") (str.to_re ",") (str.to_re "j")) (re.union (str.to_re "U") (str.to_re ",") (str.to_re "u")) (re.union (str.to_re "N") (str.to_re ",") (str.to_re "n"))) (re.++ (re.union (str.to_re "S") (str.to_re ",") (str.to_re "s")) (re.union (str.to_re "E") (str.to_re ",") (str.to_re "e")) (re.union (str.to_re "P") (str.to_re ",") (str.to_re "p"))) (re.++ (re.union (str.to_re "N") (str.to_re ",") (str.to_re "n")) (re.union (str.to_re "O") (str.to_re ",") (str.to_re "o")) (re.union (str.to_re "V") (str.to_re ",") (str.to_re "v"))))) (re.++ (re.union (re.range "1" "9") (re.++ (str.to_re "0") (re.range "1" "9")) (re.++ (re.range "1" "2") (re.range "0" "9")) (re.++ (str.to_re "3") (re.range "0" "1"))) (str.to_re "-") (re.union (re.++ (re.union (str.to_re "J") (str.to_re ",") (str.to_re "j")) (re.union (str.to_re "A") (str.to_re ",") (str.to_re "a")) (re.union (str.to_re "N") (str.to_re ",") (str.to_re "n"))) (re.++ (re.union (str.to_re "M") (str.to_re ",") (str.to_re "m")) (re.union (str.to_re "A") (str.to_re ",") (str.to_re "a")) (re.union (str.to_re "R") (str.to_re ",") (str.to_re "r"))) (re.++ (re.union (str.to_re "M") (str.to_re ",") (str.to_re "m")) (re.union (str.to_re "A") (str.to_re ",") (str.to_re "a")) (re.union (str.to_re "Y") (str.to_re ",") (str.to_re "y"))) (re.++ (re.union (str.to_re "J") (str.to_re ",") (str.to_re "j")) (re.union (str.to_re "U") (str.to_re ",") (str.to_re "u")) (re.union (str.to_re "L") (str.to_re ",") (str.to_re "l"))) (re.++ (re.union (str.to_re "A") (str.to_re ",") (str.to_re "a")) (re.union (str.to_re "U") (str.to_re ",") (str.to_re "u")) (re.union (str.to_re "G") (str.to_re ",") (str.to_re "g"))) (re.++ (re.union (str.to_re "O") (str.to_re ",") (str.to_re "o")) (re.union (str.to_re "C") (str.to_re ",") (str.to_re "c")) (re.union (str.to_re "T") (str.to_re ",") (str.to_re "t"))) (re.++ (re.union (str.to_re "D") (str.to_re ",") (str.to_re "d")) (re.union (str.to_re "E") (str.to_re ",") (str.to_re "e")) (re.union (str.to_re "C") (str.to_re ",") (str.to_re "c")))))) (str.to_re "-") ((_ re.loop 4 4) (re.range "0" "9"))) (re.++ (re.union (re.range "1" "9") (re.++ (str.to_re "0") (re.range "1" "9")) (re.++ (str.to_re "1") (re.range "0" "9")) (re.++ (str.to_re "2") (re.range "0" "8"))) (str.to_re "--") ((_ re.loop 2 2) (re.range "0" "9")) (re.union (re.++ (re.union (str.to_re "0") (str.to_re "2") (str.to_re "4") (str.to_re "6") (str.to_re "8")) (re.union (str.to_re "1") (str.to_re "2") (str.to_re "3") (str.to_re "5") (str.to_re "6") (str.to_re "7") (str.to_re "9"))) (re.++ (re.union (str.to_re "1") (str.to_re "3") (str.to_re "5") (str.to_re "7") (str.to_re "9")) (re.union (str.to_re "0") (str.to_re "1") (str.to_re "3") (str.to_re "4") (str.to_re "5") (str.to_re "7") (str.to_re "8") (str.to_re "9")))) (re.union (str.to_re "F") (str.to_re ",") (str.to_re "f")) (re.union (str.to_re "E") (str.to_re ",") (str.to_re "e")) (re.union (str.to_re "B") (str.to_re ",") (str.to_re "b"))) (re.++ (str.to_re "\u{a}") (re.union (re.range "1" "9") (re.++ (str.to_re "0") (re.range "1" "9")) (re.++ (str.to_re "1") (re.range "0" "9")) (re.++ (str.to_re "2") (re.range "0" "9"))) (str.to_re "--") ((_ re.loop 2 2) (re.range "0" "9")) (re.union (re.++ (re.union (str.to_re "0") (str.to_re "2") (str.to_re "4") (str.to_re "6") (str.to_re "8")) (re.union (str.to_re "0") (str.to_re "4") (str.to_re "8"))) (re.++ (re.union (str.to_re "1") (str.to_re "3") (str.to_re "5") (str.to_re "7") (str.to_re "9")) (re.union (str.to_re "2") (str.to_re "6")))) (re.union (str.to_re "F") (str.to_re ",") (str.to_re "f")) (re.union (str.to_re "E") (str.to_re ",") (str.to_re "e")) (re.union (str.to_re "B") (str.to_re ",") (str.to_re "b"))))))
(assert (str.in_re X (re.union (re.++ (re.union (re.range "0" "9") (re.++ (re.range "0" "1") (re.range "0" "9")) (re.++ (str.to_re "2") (re.range "0" "3"))) (str.to_re ":") (re.opt (re.union (str.to_re " ") (str.to_re "\u{9}") (str.to_re "\u{a}") (str.to_re "\u{c}") (str.to_re "\u{d}"))) (re.union (str.to_re "AM") (str.to_re "PM") (str.to_re "am") (str.to_re "pm") (str.to_re "aM") (str.to_re "Am") (str.to_re "pM") (re.++ (str.to_re "P") ((_ re.loop 2 2) (str.to_re "m")))) (re.range "0" "5") (re.range "0" "9")) (re.++ (str.to_re "\u{a}") (re.union (re.range "0" "9") (re.++ (str.to_re "1") (re.range "0" "9")) (re.++ (str.to_re "2") (re.range "0" "3"))) (re.opt (re.union (str.to_re " ") (str.to_re "\u{9}") (str.to_re "\u{a}") (str.to_re "\u{c}") (str.to_re "\u{d}"))) (re.union (str.to_re "AM") (str.to_re "PM") (str.to_re "am") (str.to_re "pm") (str.to_re "aM") (str.to_re "Am") (str.to_re "pM") (re.++ (str.to_re "P") ((_ re.loop 2 2) (str.to_re "m"))))))))
(assert (str.in_re X (re.++ (str.to_re "Points") (re.+ (re.range "0" "9")) (str.to_re "Host:") (re.union (str.to_re " ") (str.to_re "\u{9}") (str.to_re "\u{a}") (str.to_re "\u{c}") (str.to_re "\u{d}")) (str.to_re "toBasicwww.webcruiser.cc\u{a}"))))
(check-sat)

(exit)
